(set-option :print-success false)
(set-logic QF_UF)
(declare-sort x151 0)
(declare-sort x11 0)
(declare-fun x112 (x11 x11) x11)
(declare-fun x24 () x11)
(declare-fun x38 () x11)
(declare-fun x1 (x11 x11) x11)
(declare-fun x98 () x11)
(declare-fun x127 () x11)
(declare-fun x128 () x11)
(assert (let ((x150 (x1 x127 x38)) (x155 (x1 x38 x127)) (x10 (x1 x38 x98)) (x71 (x1 x38 x38)) (x67 (x1 x24 x98)) (x69 (x1 x24 x38)) (x39 (x1 x128 x128)) (x44 (x1 x128 x24)) (x80 (x1 x24 x127)) (x20 (x1 x127 x128)) (x154 (x1 x24 x24)) (x94 (x1 x127 x98)) (x77 (x1 x24 x128)) (x43 (x1 x98 x24)) (x126 (x1 x98 x98)) (x122 (x1 x98 x38)) (x56 (x1 x98 x128)) (x55 (x1 x38 x128)) (x99 (x1 x128 x38)) (x50 (x1 x127 x24)) (x83 (x1 x38 x24)) (x82 (x1 x98 x127)) (x76 (x1 x127 x127)) (x88 (x1 x128 x98)) (x102 (x1 x128 x127))) (let ((x8 (= x98 x76)) (x148 (= x38 x88)) (x149 (= x98 x39)) (x86 (= x38 x80)) (x34 (= x80 x24)) (x29 (= x83 x38)) (x85 (= x150 x128)) (x72 (= x24 x20)) (x74 (= x44 x128)) (x113 (= x82 x24)) (x144 (= x150 x98)) (x156 (= x127 x71)) (x103 (= x24 x122)) (x60 (= x99 x128)) (x129 (= x43 x127)) (x135 (= x98 x20)) (x145 (= x98 x88)) (x131 (= x98 x55)) (x25 (= x38 x126)) (x51 (= x128 x122)) (x3 (= x127 x126)) (x75 (= x127 x39)) (x119 (= x38 x94)) (x32 (= x98 x99)) (x59 (= x20 x127)) (x101 (= x88 x127)) (x57 (= x127 x10)) (x121 (= x127 x150)) (x18 (= x94 x128)) (x14 (= x76 x127)) (x92 (= x67 x24)) (x117 (= x99 x24)) (x58 (= x128 x76)) (x5 (= x94 x98)) (x107 (= x82 x98)) (x97 (= x69 x98)) (x110 (= x102 x38)) (x31 (= x24 x56)) (x22 (= x77 x24)) (x53 (= x127 x55)) (x35 (= x88 x24)) (x81 (= x122 x127)) (x26 (= x24 x154)) (x152 (= x155 x127)) (x100 (= x122 x38)) (x93 (= x69 x127)) (x118 (= x24 x71)) (x62 (= x24 x44)) (x137 (= x98 x102)) (x159 (= x155 x38)) (x27 (= x20 x38)) (x47 (= x127 x99)) (x90 (= x128 x77)) (x49 (= x39 x38)) (x134 (= x128 x56)) (x70 (= x126 x128)) (x2 (= x98 x126)) (x33 (= x50 x24)) (x158 (= x98 x67)) (x15 (= x88 x128)) (x106 (= x76 x24)) (x42 (= x55 x24)) (x141 (= x20 x128)) (x146 (= x83 x127)) (x52 (= x102 x24)) (x123 (= x80 x128)) (x84 (= x24 x126)) (x79 (= x82 x128)) (x132 (= x154 x128)) (x54 (= x150 x38)) (x140 (= x77 x38)) (x65 (= x98 x71)) (x142 (= x98 x154)) (x63 (= x67 x128)) (x30 (= x24 x83)) (x114 (= x43 x98)) (x73 (= x128 x155)) (x19 (= x10 x24)) (x16 (= x127 x80)) (x133 (= x24 x94)) (x104 (= x82 x127)) (x143 (= x98 x56)) (x109 (= x128 x50)) (x4 (= x128 x43)) (x124 (= x155 x98)) (x45 (= x56 x38)) (x111 (= x38 x154)) (x91 (= x24 x155)) (x21 (= x38 x43)) (x108 (= x10 x128)) (x40 (= x38 x99)) (x6 (= x98 x83)) (x28 (= x127 x102)) (x153 (= x128 x69)) (x115 (= x44 x127)) (x64 (= x39 x24)) (x125 (= x69 x38)) (x130 (= x77 x127)) (x89 (= x44 x98)) (x139 (= x127 x154)) (x17 (= x150 x24)) (x78 (= x77 x98)) (x116 (= x38 x50)) (x157 (= x24 x69)) (x87 (= x39 x128)) (x95 (= x38 x82)) (x96 (= x127 x56)) (x41 (= x67 x127)) (x147 (= x10 x98)) (x48 (= x38 x71)) (x37 (= x38 x10)) (x36 (= x71 x128)) (x12 (= x98 x50)) (x61 (= x128 x83)) (x68 (= x128 x55)) (x105 (= x98 x122)) (x120 (= x127 x50)) (x23 (= x102 x128)) (x9 (= x76 x38)) (x46 (= x38 x55)) (x13 (= x44 x38)) (x138 (= x24 x43)) (x66 (= x67 x38)) (x136 (= x94 x127)) (x7 (= x80 x98))) (and (and (and (and (and (and (and (or (or (or x89 (or x12 x142)) x114) x6) (or (or (or x78 (or x7 x142)) x158) x97)) (and (and (or (or x63 (or (or x123 x132) x90)) x153) (or (or x4 (or (or x132 x109) x74)) x61)) (and (and (or x93 (or x41 (or (or x139 x16) x130))) (or (or (or (or x139 x120) x115) x129) x146)) (and (or (or x138 (or x62 (or x33 x26))) x30) (or (or x92 (or (or x34 x26) x22)) x157))))) (and (or (or (or x140 (or x111 x86)) x66) x125) (or (or x21 (or (or x116 x111) x13)) x29))) (and (and (or (or x119 (or x27 (or x9 x116))) x54) (or (or (or (or x86 x9) x110) x95) x159)) (and (and (and (or (or x79 (or (or x58 x123) x23)) x73) (or (or (or (or x58 x109) x141) x18) x85)) (and (and (or (or (or x52 (or x34 x106)) x113) x91) (or (or (or x72 (or x33 x106)) x133) x17)) (and (or x121 (or x136 (or x59 (or x14 x120)))) (or x152 (or (or x28 (or x14 x16)) x104))))) (and (or x144 (or x5 (or (or x12 x8) x135))) (or x124 (or (or (or x8 x7) x137) x107)))))) (and (and (or (or (or x49 (or x27 x140)) x45) x46) (or (or x148 (or (or x110 x13) x49)) x40)) (and (and (and (and (or (or x96 (or (or x130 x59) x75)) x53) (or (or (or x75 (or x115 x28)) x101) x47)) (and (or x42 (or (or (or x22 x72) x64) x31)) (or (or (or (or x52 x62) x64) x35) x117))) (and (or x60 (or (or (or x23 x74) x87) x15)) (or (or x134 (or (or x90 x141) x87)) x68))) (and (or (or (or (or x78 x135) x149) x143) x131) (or (or (or x149 (or x89 x137)) x145) x32))))) (and (and (or (or (or x45 (or x95 x21)) x25) x100) (or x37 (or x25 (or (or x66 x119) x148)))) (and (and (and (or x51 (or x70 (or x134 (or x79 x4)))) (or (or (or x15 (or x63 x18)) x70) x108)) (and (and (or x81 (or x3 (or (or x129 x104) x96))) (or (or x3 (or x101 (or x136 x41))) x57)) (and (or x103 (or x84 (or x31 (or x138 x113)))) (or x19 (or (or x35 (or x92 x133)) x84))))) (and (or (or (or x143 (or x107 x114)) x2) x105) (or x147 (or x2 (or x145 (or x158 x5)))))))) (and (and (or x48 (or (or (or x54 x125) x40) x100)) (or x48 (or x37 (or (or x29 x159) x46)))) (and (and (or (or (or (or x6 x124) x131) x147) x65) (or x65 (or x105 (or (or x97 x144) x32)))) (and (and (or x36 (or (or (or x85 x153) x60) x51)) (or (or (or (or x73 x61) x68) x108) x36)) (and (and (or x118 (or (or (or x157 x17) x117) x103)) (or x118 (or (or x42 (or x91 x30)) x19))) (and (or (or (or (or x121 x93) x47) x81) x156) (or (or x57 (or x53 (or x146 x152))) x156))))))))))
(assert (not (and (= (x1 x38 x38) x24) (and (and (and (= x38 (x1 x38 x127)) (and (and (= x98 (x1 x98 x38)) (and (= (x1 x98 x98) x128) (and (= (x1 x98 x128) x38) (and (= (x1 x98 x127) x24) (and (and (and (= (x1 x128 x98) x38) (and (= (x1 x128 x128) x127) (and (and (= x24 (x1 x128 x24)) (and (and (and (and (= (x1 x127 x127) x127) (and (= x128 (x1 x127 x24)) (and (and (and (and (= x128 (x1 x24 x127)) (= (x1 x24 x24) x38)) (= (x1 x24 x128) x24)) (= (x1 x24 x98) x98)) (= x127 (x1 x24 x38))))) (= (x1 x127 x128) x98)) (= x24 (x1 x127 x98))) (= x38 (x1 x127 x38)))) (= (x1 x128 x127) x98)))) (= x128 (x1 x128 x38))) (= (x1 x98 x24) x127)))))) (= (x1 x38 x24) x98))) (= (x1 x38 x128) x128)) (= x127 (x1 x38 x98))))))
(assert (let ((x43 (= (x1 x38 x38) x38)) (x44 (= (x1 x98 x98) x98)) (x80 (= x127 (x1 x127 x127))) (x50 (= (x1 x128 x128) x128)) (x26 (= x24 (x1 x24 x24)))) (let ((x154 (not x26)) (x77 (not x80)) (x69 (not x44)) (x67 (not x50)) (x139 (not x43))) (or (or (or (and (= x98 (x1 x98 x38)) x139) (or (or (and (= (x1 x98 x128) x98) x67) (or (and (= (x1 x98 x127) x98) x77) (and (= (x1 x98 x24) x98) x154))) (and x69 x44))) (or (or (or (or (and x69 (= x24 (x1 x24 x98))) (or (and x67 (= (x1 x24 x128) x24)) (or (and x26 x154) (and x77 (= x24 (x1 x24 x127)))))) (and x139 (= (x1 x24 x38) x24))) (or (or (or (and (= x127 (x1 x127 x128)) x67) (or (and x77 x80) (and x154 (= x127 (x1 x127 x24))))) (and (= (x1 x127 x98) x127) x69)) (and x139 (= x127 (x1 x127 x38))))) (or (or (and x69 (= (x1 x128 x98) x128)) (or (and x50 x67) (or (and x77 (= (x1 x128 x127) x128)) (and x154 (= x128 (x1 x128 x24)))))) (and (= x128 (x1 x128 x38)) x139)))) (or (or (and (= (x1 x38 x98) x38) x69) (or (and x67 (= (x1 x38 x128) x38)) (or (and x154 (= (x1 x38 x24) x38)) (and (= x38 (x1 x38 x127)) x77)))) (and x43 x139))))))
(assert (or (or (or (= (x1 x128 x128) x128) (or (= x127 (x1 x127 x127)) (= x24 (x1 x24 x24)))) (= x98 (x1 x98 x98))) (= (x1 x38 x38) x38)))
(assert (and (and (or (or (or (or (= x127 (x1 x98 (x1 x98 x127))) (= (x1 x98 (x1 x98 x24)) x24)) (= (x1 x98 (x1 x98 x128)) x128)) (= (x1 x98 (x1 x98 x98)) x98)) (= (x1 x98 (x1 x98 x38)) x38)) (and (and (or (or (or (= (x1 x24 (x1 x24 x128)) x128) (or (= (x1 x24 (x1 x24 x24)) x24) (= (x1 x24 (x1 x24 x127)) x127))) (= x98 (x1 x24 (x1 x24 x98)))) (= x38 (x1 x24 (x1 x24 x38)))) (or (or (or (or (= x127 (x1 x127 (x1 x127 x127))) (= x24 (x1 x127 (x1 x127 x24)))) (= x128 (x1 x127 (x1 x127 x128)))) (= (x1 x127 (x1 x127 x98)) x98)) (= (x1 x127 (x1 x127 x38)) x38))) (or (= (x1 x128 (x1 x128 x38)) x38) (or (= x98 (x1 x128 (x1 x128 x98))) (or (= (x1 x128 (x1 x128 x128)) x128) (or (= x127 (x1 x128 (x1 x128 x127))) (= x24 (x1 x128 (x1 x128 x24))))))))) (or (or (= x98 (x1 x38 (x1 x38 x98))) (or (or (= (x1 x38 (x1 x38 x127)) x127) (= (x1 x38 (x1 x38 x24)) x24)) (= (x1 x38 (x1 x38 x128)) x128))) (= (x1 x38 (x1 x38 x38)) x38))))
(assert (let ((x44 (x1 x128 x128)) (x132 (x1 x98 x127)) (x34 (x1 x98 x98)) (x80 (x1 x24 x127)) (x142 (x1 x127 x98)) (x33 (x1 x128 x98)) (x69 (x1 x24 x128)) (x106 (x1 x38 x24)) (x14 (x1 x98 x38)) (x154 (x1 x127 x24)) (x43 (x1 x98 x24)) (x77 (x1 x127 x127)) (x102 (x1 x38 x38)) (x26 (x1 x24 x24)) (x83 (x1 x24 x98)) (x76 (x1 x38 x127)) (x20 (x1 x127 x38)) (x94 (x1 x38 x128)) (x120 (x1 x24 x38)) (x111 (x1 x98 x128)) (x67 (x1 x128 x24)) (x16 (x1 x38 x98)) (x150 (x1 x128 x38)) (x139 (x1 x128 x127)) (x50 (x1 x127 x128))) (or (or (or (or (and (and (and (= x50 x139) (and (= x77 x77) (= x80 x154))) (= x142 x132)) (= x76 x20)) (and (and (and (and (= x154 x80) (= x26 x26)) (= x67 x69)) (= x83 x43)) (= x120 x106))) (and (and (= x111 x33) (and (= x44 x44) (and (= x67 x69) (= x50 x139)))) (= x150 x94))) (and (and (and (and (= x83 x43) (= x132 x142)) (= x33 x111)) (= x34 x34)) (= x16 x14))) (and (and (= x14 x16) (and (= x94 x150) (and (= x106 x120) (= x20 x76)))) (= x102 x102)))))
(assert (let ((x77 (x1 x98 x98)) (x67 (x1 x38 x38)) (x80 (x1 x128 x128)) (x154 (x1 x127 x127)) (x26 (x1 x24 x24))) (or (and (not (= x38 x67)) (and (not (= x77 x38)) (and (and (not (= x26 x38)) (not (= x38 x154))) (not (= x38 x80))))) (or (or (and (not (= x128 x67)) (and (and (and (not (= x128 x26)) (not (= x154 x128))) (not (= x128 x80))) (not (= x128 x77)))) (or (and (not (= x67 x127)) (and (and (not (= x80 x127)) (and (not (= x154 x127)) (not (= x127 x26)))) (not (= x77 x127)))) (and (and (and (not (= x24 x80)) (and (not (= x24 x26)) (not (= x154 x24)))) (not (= x77 x24))) (not (= x24 x67))))) (and (not (= x98 x67)) (and (not (= x77 x98)) (and (not (= x98 x80)) (and (not (= x26 x98)) (not (= x98 x154))))))))))
(assert (or (or (or (and (and (not (= x98 (x1 (x1 x98 x128) x128))) (and (and (not (= (x1 (x1 x127 x128) x128) x127)) (not (= x24 (x1 (x1 x24 x128) x128)))) (not (= (x1 (x1 x128 x128) x128) x128)))) (not (= (x1 (x1 x38 x128) x128) x38))) (or (and (and (and (not (= (x1 (x1 x128 x24) x24) x128)) (and (not (= (x1 (x1 x24 x24) x24) x24)) (not (= (x1 (x1 x127 x24) x24) x127)))) (not (= x98 (x1 (x1 x98 x24) x24)))) (not (= (x1 (x1 x38 x24) x24) x38))) (and (not (= x38 (x1 (x1 x38 x127) x127))) (and (not (= (x1 (x1 x98 x127) x127) x98)) (and (not (= (x1 (x1 x128 x127) x127) x128)) (and (not (= x24 (x1 (x1 x24 x127) x127))) (not (= (x1 (x1 x127 x127) x127) x127)))))))) (and (not (= x38 (x1 (x1 x38 x98) x98))) (and (and (not (= (x1 (x1 x128 x98) x98) x128)) (and (not (= (x1 (x1 x127 x98) x98) x127)) (not (= x24 (x1 (x1 x24 x98) x98))))) (not (= x98 (x1 (x1 x98 x98) x98)))))) (and (and (not (= (x1 (x1 x98 x38) x38) x98)) (and (and (not (= x24 (x1 (x1 x24 x38) x38))) (not (= x127 (x1 (x1 x127 x38) x38)))) (not (= x128 (x1 (x1 x128 x38) x38))))) (not (= x38 (x1 (x1 x38 x38) x38))))))
(assert (let ((x142 (x1 x98 x24)) (x80 (x1 x127 x24)) (x120 (x1 x98 x128)) (x102 (x1 x127 x38)) (x109 (x1 x38 x98)) (x16 (x1 x38 x127)) (x155 (x1 x128 x38)) (x139 (x1 x128 x24)) (x14 (x1 x38 x38)) (x44 (x1 x128 x127)) (x106 (x1 x127 x98)) (x33 (x1 x98 x127)) (x111 (x1 x24 x98)) (x150 (x1 x24 x38)) (x34 (x1 x98 x98)) (x67 (x1 x127 x127)) (x43 (x1 x128 x128)) (x83 (x1 x127 x128)) (x123 (x1 x98 x38)) (x154 (x1 x24 x24)) (x94 (x1 x38 x24)) (x76 (x1 x128 x98)) (x82 (x1 x38 x128)) (x77 (x1 x24 x127)) (x50 (x1 x24 x128))) (let ((x132 (= x43 x128)) (x58 (= x14 x38)) (x69 (= x67 x127)) (x20 (= x98 x34)) (x26 (= x24 x154))) (and (and (and (and (or (= (x1 x43 x128) x128) (not (= (x1 x128 x43) x128))) (and (or (= (x1 x154 x24) x24) (not (= (x1 x24 x154) x24))) (or (= (x1 x67 x127) x127) (not (= x127 (x1 x127 x67)))))) (or (not (= (x1 x98 x34) x98)) (= x98 (x1 x34 x98)))) (or (not (= x38 (x1 x38 x14))) (= x38 (x1 x14 x38)))) (or (or (or (and (and (= x98 x109) (not (= x34 x38))) (= x98 x123)) (or (and x20 (and x20 (not x20))) (or (and (= x98 x120) (and (not (= x128 x34)) (= x76 x98))) (or (and (and (not (= x34 x127)) (= x98 x106)) (= x33 x98)) (and (= x98 x142) (and (not (= x24 x34)) (= x111 x98))))))) (or (or (or (or (and (= x24 x111) (and (= x142 x24) (not (= x154 x98)))) (or (and (and (not (= x154 x128)) (= x139 x24)) (= x50 x24)) (or (and (and (= x24 x80) (not (= x154 x127))) (= x77 x24)) (and x26 (and x26 (not x26)))))) (and (and (= x94 x24) (not (= x154 x38))) (= x150 x24))) (or (or (and (and (= x127 x33) (not (= x67 x98))) (= x106 x127)) (or (or (and (= x80 x127) (and (= x127 x77) (not (= x24 x67)))) (and x69 (and (not x69) x69))) (and (= x83 x127) (and (= x44 x127) (not (= x128 x67)))))) (and (and (= x127 x16) (not (= x67 x38))) (= x102 x127)))) (or (or (and (and (not (= x98 x43)) (= x128 x120)) (= x76 x128)) (or (and x132 (and x132 (not x132))) (or (and (= x128 x44) (and (not (= x43 x127)) (= x128 x83))) (and (= x139 x128) (and (not (= x24 x43)) (= x128 x50)))))) (and (= x155 x128) (and (not (= x38 x43)) (= x128 x82)))))) (or (and (and (not x58) x58) x58) (or (and (= x109 x38) (and (= x123 x38) (not (= x14 x98)))) (or (and (and (= x155 x38) (not (= x128 x14))) (= x38 x82)) (or (and (= x38 x94) (and (not (= x14 x24)) (= x38 x150))) (and (= x16 x38) (and (= x102 x38) (not (= x14 x127)))))))))))))
(assert (or (or (and (not (= (x1 (x1 x38 x98) x38) x98)) (and (and (and (not (= (x1 (x1 x24 x98) x24) x98)) (not (= x98 (x1 (x1 x127 x98) x127)))) (not (= x98 (x1 (x1 x128 x98) x128)))) (not (= (x1 (x1 x98 x98) x98) x98)))) (or (or (and (and (and (and (not (= x24 (x1 (x1 x24 x24) x24))) (not (= x24 (x1 (x1 x127 x24) x127)))) (not (= x24 (x1 (x1 x128 x24) x128)))) (not (= (x1 (x1 x98 x24) x98) x24))) (not (= x24 (x1 (x1 x38 x24) x38)))) (and (and (not (= (x1 (x1 x98 x127) x98) x127)) (and (not (= (x1 (x1 x128 x127) x128) x127)) (and (not (= (x1 (x1 x24 x127) x24) x127)) (not (= x127 (x1 (x1 x127 x127) x127)))))) (not (= (x1 (x1 x38 x127) x38) x127)))) (and (and (not (= x128 (x1 (x1 x98 x128) x98))) (and (not (= (x1 (x1 x128 x128) x128) x128)) (and (not (= (x1 (x1 x24 x128) x24) x128)) (not (= (x1 (x1 x127 x128) x127) x128))))) (not (= (x1 (x1 x38 x128) x38) x128))))) (and (and (not (= (x1 (x1 x98 x38) x98) x38)) (and (and (not (= x38 (x1 (x1 x127 x38) x127))) (not (= x38 (x1 (x1 x24 x38) x24)))) (not (= x38 (x1 (x1 x128 x38) x128))))) (not (= (x1 (x1 x38 x38) x38) x38)))))
(assert (or (or (or (or (and (not (= (x1 x127 x38) x38)) (and (and (and (not (= x127 (x1 x127 x127))) (not (= (x1 x127 x24) x24))) (not (= x128 (x1 x127 x128)))) (not (= (x1 x127 x98) x98)))) (and (not (= (x1 x24 x38) x38)) (and (not (= (x1 x24 x98) x98)) (and (and (not (= (x1 x24 x127) x127)) (not (= x24 (x1 x24 x24)))) (not (= (x1 x24 x128) x128)))))) (and (not (= (x1 x128 x38) x38)) (and (and (not (= x128 (x1 x128 x128))) (and (not (= x24 (x1 x128 x24))) (not (= (x1 x128 x127) x127)))) (not (= (x1 x128 x98) x98))))) (and (and (not (= x98 (x1 x98 x98))) (and (not (= x128 (x1 x98 x128))) (and (not (= (x1 x98 x24) x24)) (not (= x127 (x1 x98 x127)))))) (not (= (x1 x98 x38) x38)))) (and (not (= x38 (x1 x38 x38))) (and (and (not (= (x1 x38 x128) x128)) (and (not (= (x1 x38 x24) x24)) (not (= x127 (x1 x38 x127))))) (not (= x98 (x1 x38 x98)))))))
(assert (let ((x86 (x1 x38 x24)) (x123 (x1 x127 x24)) (x141 (x1 x38 x128)) (x90 (x1 x128 x38)) (x56 (x1 x128 x128)) (x7 (x1 x24 x98)) (x64 (x1 x128 x127)) (x82 (x1 x24 x24)) (x58 (x1 x24 x128)) (x115 (x1 x127 x98)) (x13 (x1 x98 x98)) (x39 (x1 x127 x38)) (x12 (x1 x128 x24)) (x72 (x1 x127 x128)) (x116 (x1 x24 x38)) (x109 (x1 x24 x127)) (x8 (x1 x98 x24)) (x27 (x1 x38 x98)) (x74 (x1 x128 x98)) (x28 (x1 x98 x127)) (x52 (x1 x127 x127)) (x88 (x1 x38 x127)) (x140 (x1 x98 x38)) (x23 (x1 x98 x128)) (x129 (x1 x38 x38))) (let ((x41 (= x52 x128)) (x68 (= x82 x38)) (x76 (= x88 x24)) (x3 (= x128 x64)) (x32 (= x23 x38)) (x97 (= x28 x38)) (x153 (= x109 x38)) (x29 (= x38 x86)) (x143 (= x128 x116)) (x101 (= x58 x128)) (x122 (= x109 x128)) (x104 (= x127 x129)) (x55 (= x56 x127)) (x22 (= x52 x127)) (x114 (= x13 x128)) (x157 (= x98 x56)) (x139 (= x64 x24)) (x6 (= x72 x38)) (x17 (= x8 x98)) (x51 (= x38 x58)) (x37 (= x39 x38)) (x137 (= x127 x28)) (x81 (= x98 x90)) (x63 (= x28 x128)) (x48 (= x38 x129)) (x152 (= x98 x74)) (x65 (= x13 x38)) (x44 (= x24 x56)) (x158 (= x88 x128)) (x46 (= x88 x38)) (x156 (= x27 x98)) (x107 (= x128 x86)) (x43 (= x8 x24)) (x126 (= x123 x128)) (x49 (= x127 x86)) (x149 (= x74 x127)) (x121 (= x98 x39)) (x16 (= x27 x24)) (x57 (= x98 x86)) (x145 (= x141 x128)) (x108 (= x38 x123)) (x124 (= x38 x56)) (x15 (= x128 x23)) (x45 (= x128 x129)) (x131 (= x8 x38)) (x154 (= x123 x24)) (x89 (= x127 x7)) (x100 (= x140 x38)) (x159 (= x116 x38)) (x78 (= x115 x127)) (x4 (= x128 x56)) (x10 (= x72 x128)) (x99 (= x127 x12)) (x117 (= x7 x98)) (x133 (= x127 x90)) (x120 (= x116 x24)) (x135 (= x127 x23)) (x95 (= x128 x140)) (x91 (= x98 x58)) (x96 (= x128 x82)) (x5 (= x128 x39)) (x59 (= x127 x64)) (x118 (= x115 x98)) (x67 (= x24 x12)) (x69 (= x24 x58)) (x132 (= x28 x24)) (x19 (= x98 x72)) (x40 (= x27 x38)) (x106 (= x24 x86)) (x53 (= x98 x13)) (x84 (= x140 x127)) (x125 (= x38 x141)) (x147 (= x7 x38)) (x142 (= x115 x24)) (x138 (= x127 x116)) (x18 (= x115 x128)) (x130 (= x58 x127)) (x47 (= x98 x141)) (x70 (= x74 x128)) (x92 (= x141 x127)) (x80 (= x109 x24)) (x75 (= x72 x127)) (x150 (= x24 x90)) (x20 (= x39 x24)) (x31 (= x127 x39)) (x77 (= x52 x24)) (x2 (= x90 x128)) (x102 (= x24 x129)) (x26 (= x82 x24)) (x60 (= x12 x38)) (x148 (= x98 x109)) (x25 (= x52 x98)) (x71 (= x98 x116)) (x61 (= x140 x98)) (x119 (= x98 x123)) (x50 (= x24 x72)) (x9 (= x127 x123)) (x35 (= x27 x127)) (x144 (= x38 x115)) (x136 (= x12 x128)) (x155 (= x82 x127)) (x85 (= x38 x52)) (x14 (= x24 x140)) (x54 (= x38 x90)) (x33 (= x24 x74)) (x110 (= x13 x127)) (x94 (= x24 x141)) (x146 (= x98 x23)) (x62 (= x127 x109)) (x79 (= x8 x128)) (x105 (= x38 x74)) (x73 (= x98 x129)) (x66 (= x82 x98)) (x42 (= x98 x64)) (x36 (= x64 x38)) (x83 (= x7 x24)) (x34 (= x24 x13)) (x134 (= x128 x7)) (x111 (= x23 x24)) (x113 (= x127 x88)) (x30 (= x12 x98)) (x87 (= x127 x8)) (x21 (= x128 x27)) (x103 (= x28 x98)) (x93 (= x88 x98))) (and (and (or (or (and x73 x73) (or (or (or (and x93 x121) (and x57 x71)) (and x47 x81)) (and x156 x61))) (or (or (or (or (or (or (and x19 x42) (or (and x148 x119) (and x25 x25))) (and x103 x118)) (and x121 x93)) (or (or (or (or (and x66 x66) (and x119 x148)) (and x91 x30)) (and x17 x117)) (and x57 x71))) (or (or (or (and x157 x157) (or (and x91 x30) (and x19 x42))) (and x152 x146)) (and x47 x81))) (or (and x156 x61) (or (and x53 x53) (or (or (and x118 x103) (and x17 x117)) (and x146 x152)))))) (and (and (or (or (or (or (or (or (and x87 x89) (and x137 x78)) (and x135 x149)) (and x110 x110)) (and x35 x84)) (or (or (or (or (or (and x75 x59) (or (and x22 x22) (and x62 x9))) (and x137 x78)) (and x31 x113)) (or (or (or (or (and x9 x62) (and x155 x155)) (and x99 x130)) (and x89 x87)) (and x49 x138))) (or (or (and x135 x149) (or (or (and x99 x130) (and x75 x59)) (and x55 x55))) (and x133 x92)))) (or (and x104 x104) (or (and x35 x84) (or (or (and x113 x31) (and x49 x138)) (and x133 x92))))) (or (or (and x102 x102) (or (and x16 x14) (or (or (and x120 x106) (and x20 x76)) (and x150 x94)))) (or (or (and x16 x14) (or (and x34 x34) (or (and x111 x33) (or (and x132 x142) (and x83 x43))))) (or (or (or (and x120 x106) (or (or (and x69 x67) (or (and x154 x80) (and x26 x26))) (and x43 x83))) (or (and x20 x76) (or (and x142 x132) (or (or (and x154 x80) (and x77 x77)) (and x139 x50))))) (or (or (or (and x44 x44) (or (and x69 x67) (and x139 x50))) (and x33 x111)) (and x150 x94)))))) (or (or (or (and x21 x95) (or (and x114 x114) (or (or (and x63 x18) (and x134 x79)) (and x15 x70)))) (or (or (or (or (or (or (and x122 x126) (and x96 x96)) (and x101 x136)) (and x134 x79)) (and x107 x143)) (or (and x5 x158) (or (and x18 x63) (or (and x10 x3) (or (and x41 x41) (and x122 x126)))))) (or (and x2 x145) (or (or (or (and x10 x3) (and x136 x101)) (and x4 x4)) (and x70 x15))))) (or (and x45 x45) (or (or (or (and x143 x107) (and x158 x5)) (and x2 x145)) (and x21 x95)))))) (or (or (or (or (or (or (or (or (and x108 x153) (and x85 x85)) (and x36 x6)) (and x144 x97)) (and x46 x37)) (or (and x159 x29) (or (and x131 x147) (or (or (and x108 x153) (and x68 x68)) (and x51 x60))))) (or (and x125 x54) (or (and x105 x32) (or (or (and x51 x60) (and x36 x6)) (and x124 x124))))) (or (or (or (and x105 x32) (or (and x147 x131) (and x97 x144))) (and x65 x65)) (and x40 x100))) (or (and x48 x48) (or (and x40 x100) (or (or (and x29 x159) (and x37 x46)) (and x54 x125)))))))))
(assert (or (or (and (and (not (= x98 (x1 (x1 x98 x98) x98))) (and (not (= (x1 (x1 x98 x128) x98) x128)) (and (not (= x127 (x1 (x1 x98 x127) x98))) (not (= x24 (x1 (x1 x98 x24) x98)))))) (not (= (x1 (x1 x98 x38) x98) x38))) (or (and (not (= x38 (x1 (x1 x128 x38) x128))) (and (not (= (x1 (x1 x128 x98) x128) x98)) (and (not (= (x1 (x1 x128 x128) x128) x128)) (and (not (= x127 (x1 (x1 x128 x127) x128))) (not (= (x1 (x1 x128 x24) x128) x24)))))) (or (and (and (and (not (= (x1 (x1 x127 x128) x127) x128)) (and (not (= x24 (x1 (x1 x127 x24) x127))) (not (= (x1 (x1 x127 x127) x127) x127)))) (not (= (x1 (x1 x127 x98) x127) x98))) (not (= (x1 (x1 x127 x38) x127) x38))) (and (not (= x38 (x1 (x1 x24 x38) x24))) (and (and (and (not (= (x1 (x1 x24 x127) x24) x127)) (not (= (x1 (x1 x24 x24) x24) x24))) (not (= x128 (x1 (x1 x24 x128) x24)))) (not (= x98 (x1 (x1 x24 x98) x24)))))))) (and (and (not (= (x1 (x1 x38 x98) x38) x98)) (and (not (= (x1 (x1 x38 x128) x38) x128)) (and (not (= (x1 (x1 x38 x127) x38) x127)) (not (= x24 (x1 (x1 x38 x24) x38)))))) (not (= (x1 (x1 x38 x38) x38) x38)))))
(assert (and (and (and (and (or (or (or (not (= x128 (x1 (x1 x128 x24) x24))) (or (not (= (x1 (x1 x24 x24) x24) x24)) (not (= x127 (x1 (x1 x127 x24) x24))))) (not (= (x1 (x1 x98 x24) x24) x98))) (not (= x38 (x1 (x1 x38 x24) x24)))) (or (not (= (x1 (x1 x38 x127) x127) x38)) (or (not (= (x1 (x1 x98 x127) x127) x98)) (or (or (not (= x127 (x1 (x1 x127 x127) x127))) (not (= (x1 (x1 x24 x127) x127) x24))) (not (= x128 (x1 (x1 x128 x127) x127))))))) (or (or (not (= (x1 (x1 x98 x128) x128) x98)) (or (not (= x128 (x1 (x1 x128 x128) x128))) (or (not (= x127 (x1 (x1 x127 x128) x128))) (not (= (x1 (x1 x24 x128) x128) x24))))) (not (= (x1 (x1 x38 x128) x128) x38)))) (or (not (= x38 (x1 (x1 x38 x98) x98))) (or (not (= (x1 (x1 x98 x98) x98) x98)) (or (or (not (= x127 (x1 (x1 x127 x98) x98))) (not (= x24 (x1 (x1 x24 x98) x98)))) (not (= (x1 (x1 x128 x98) x98) x128)))))) (or (not (= (x1 (x1 x38 x38) x38) x38)) (or (not (= (x1 (x1 x98 x38) x38) x98)) (or (not (= x128 (x1 (x1 x128 x38) x38))) (or (not (= (x1 (x1 x24 x38) x38) x24)) (not (= (x1 (x1 x127 x38) x38) x127))))))))
(assert (and (and (= x128 (x1 x24 x127)) (and (= (x1 x38 x38) x24) (= x127 (x1 x24 x38)))) (= (x1 x128 x127) x98)))
(assert (let ((x132 (x1 x128 x127)) (x120 (x1 x98 x128)) (x50 (x1 x127 x128)) (x106 (x1 x98 x127)) (x20 (x1 x98 x38)) (x67 (x1 x24 x38)) (x43 (x1 x127 x38)) (x142 (x1 x128 x128)) (x94 (x1 x38 x24)) (x83 (x1 x128 x24)) (x77 (x1 x24 x98)) (x111 (x1 x128 x98)) (x76 (x1 x98 x98)) (x150 (x1 x38 x127)) (x34 (x1 x98 x24)) (x14 (x1 x38 x98)) (x33 (x1 x128 x38)) (x26 (x1 x24 x24)) (x69 (x1 x127 x24)) (x44 (x1 x127 x98)) (x16 (x1 x38 x128)) (x80 (x1 x24 x128)) (x139 (x1 x127 x127)) (x154 (x1 x24 x127)) (x102 (x1 x38 x38))) (and (and (and (and (and (and (and (and (or (or (or (= x26 x128) (or (= x26 x127) (= x26 x24))) (= x98 x26)) (= x26 x38)) (or (= x154 x38) (or (= x98 x154) (or (= x154 x128) (or (= x154 x24) (= x127 x154)))))) (or (or (or (= x80 x128) (or (= x80 x127) (= x24 x80))) (= x98 x80)) (= x38 x80))) (or (or (or (= x128 x77) (or (= x77 x24) (= x77 x127))) (= x77 x98)) (= x77 x38))) (or (= x67 x38) (or (or (= x128 x67) (or (= x127 x67) (= x24 x67))) (= x67 x98)))) (and (or (= x43 x38) (or (= x98 x43) (or (or (= x43 x127) (= x43 x24)) (= x128 x43)))) (and (and (or (or (= x98 x50) (or (= x128 x50) (or (= x50 x127) (= x24 x50)))) (= x38 x50)) (and (or (= x38 x139) (or (= x98 x139) (or (= x128 x139) (or (= x139 x24) (= x139 x127))))) (or (= x69 x38) (or (= x69 x98) (or (= x69 x128) (or (= x69 x24) (= x127 x69))))))) (or (or (= x98 x44) (or (= x128 x44) (or (= x127 x44) (= x24 x44)))) (= x44 x38))))) (and (or (or (or (= x128 x33) (or (= x24 x33) (= x33 x127))) (= x33 x98)) (= x38 x33)) (and (or (= x111 x38) (or (= x98 x111) (or (= x111 x128) (or (= x127 x111) (= x24 x111))))) (and (or (or (= x98 x142) (or (or (= x142 x127) (= x24 x142)) (= x142 x128))) (= x142 x38)) (and (or (or (or (or (= x132 x127) (= x132 x24)) (= x128 x132)) (= x132 x98)) (= x38 x132)) (or (= x38 x83) (or (or (= x83 x128) (or (= x127 x83) (= x83 x24))) (= x98 x83)))))))) (and (and (and (and (or (or (= x98 x106) (or (= x128 x106) (or (= x106 x24) (= x127 x106)))) (= x106 x38)) (or (or (= x98 x34) (or (= x34 x128) (or (= x34 x24) (= x34 x127)))) (= x38 x34))) (or (= x120 x38) (or (= x120 x98) (or (or (= x120 x127) (= x24 x120)) (= x128 x120))))) (or (= x76 x38) (or (or (or (= x76 x127) (= x76 x24)) (= x128 x76)) (= x76 x98)))) (or (= x20 x38) (or (or (= x128 x20) (or (= x20 x24) (= x127 x20))) (= x98 x20))))) (and (and (and (or (or (or (= x128 x16) (or (= x127 x16) (= x24 x16))) (= x98 x16)) (= x38 x16)) (and (or (or (= x98 x94) (or (= x94 x128) (or (= x94 x24) (= x94 x127)))) (= x38 x94)) (or (or (= x98 x150) (or (or (= x150 x24) (= x127 x150)) (= x128 x150))) (= x38 x150)))) (or (= x14 x38) (or (= x98 x14) (or (= x14 x128) (or (= x127 x14) (= x24 x14)))))) (or (= x102 x38) (or (or (or (= x127 x102) (= x102 x24)) (= x102 x128)) (= x98 x102)))))))
(assert (and (and (not (= x38 x128)) (and (and (not (= x127 x38)) (and (not (= x127 x98)) (and (not (= x127 x128)) (and (not (= x38 x24)) (and (and (not (= x24 x127)) (not (= x24 x128))) (not (= x24 x98))))))) (not (= x98 x128)))) (not (= x38 x98))))
(assert (let ((x150 (x1 x127 x128)) (x34 (x1 x24 x98)) (x106 (x1 x24 x38)) (x58 (x1 x128 x98)) (x14 (x1 x127 x38)) (x69 (x1 x128 x24)) (x12 (x1 x128 x38)) (x33 (x1 x24 x128)) (x43 (x1 x38 x24)) (x28 (x1 x38 x128)) (x9 (x1 x98 x128)) (x50 (x1 x98 x24)) (x154 (x1 x24 x24)) (x39 (x1 x38 x98)) (x16 (x1 x127 x98)) (x142 (x1 x24 x127)) (x64 (x1 x38 x127)) (x116 (x1 x98 x127)) (x20 (x1 x127 x127)) (x88 (x1 x38 x38)) (x123 (x1 x128 x128)) (x52 (x1 x98 x38)) (x62 (x1 x98 x98)) (x77 (x1 x127 x24)) (x155 (x1 x128 x127))) (let ((x7 (= x127 x50)) (x53 (= x24 x14)) (x113 (= x128 x64)) (x147 (= x127 x52)) (x125 (= x28 x38)) (x157 (= x127 x106)) (x102 (= x69 x127)) (x13 (= x9 x24)) (x6 (= x38 x50)) (x115 (= x127 x64)) (x63 (= x155 x98)) (x129 (= x34 x127)) (x19 (= x142 x38)) (x27 (= x128 x9)) (x59 (= x142 x128)) (x92 (= x28 x128)) (x89 (= x24 x123)) (x143 (= x24 x62)) (x131 (= x116 x38)) (x56 (= x33 x128)) (x110 (= x128 x116)) (x82 (= x24 x155)) (x45 (= x24 x39)) (x29 (= x43 x38)) (x67 (= x24 x69)) (x61 (= x38 x69)) (x133 (= x98 x154)) (x136 (= x20 x98)) (x124 (= x24 x52)) (x148 (= x98 x28)) (x100 (= x88 x98)) (x2 (= x128 x62)) (x84 (= x98 x142)) (x65 (= x52 x38)) (x114 (= x58 x98)) (x134 (= x58 x24)) (x93 (= x150 x38)) (x55 (= x128 x77)) (x48 (= x38 x88)) (x145 (= x9 x98)) (x51 (= x98 x12)) (x139 (= x50 x24)) (x31 (= x127 x28)) (x5 (= x62 x127)) (x153 (= x123 x38)) (x79 (= x98 x69)) (x109 (= x155 x127)) (x10 (= x16 x128)) (x47 (= x38 x16)) (x21 (= x98 x62)) (x126 (= x34 x98)) (x149 (= x50 x128)) (x111 (= x142 x127)) (x121 (= x128 x14)) (x138 (= x28 x24)) (x94 (= x127 x20)) (x90 (= x127 x150)) (x78 (= x127 x123)) (x66 (= x64 x98)) (x35 (= x24 x34)) (x18 (= x58 x127)) (x49 (= x128 x43)) (x80 (= x24 x77)) (x101 (= x127 x16)) (x40 (= x39 x38)) (x85 (= x128 x12)) (x70 (= x128 x58)) (x44 (= x24 x43)) (x36 (= x38 x12)) (x4 (= x98 x16)) (x30 (= x39 x98)) (x46 (= x64 x38)) (x97 (= x38 x9)) (x25 (= x39 x128)) (x75 (= x33 x127)) (x122 (= x98 x77)) (x158 (= x116 x98)) (x41 (= x16 x24)) (x54 (= x88 x128)) (x103 (= x34 x38)) (x60 (= x58 x38)) (x130 (= x24 x33)) (x26 (= x24 x154)) (x140 (= x9 x127)) (x146 (= x106 x38)) (x22 (= x43 x127)) (x87 (= x128 x69)) (x159 (= x88 x24)) (x83 (= x154 x127)) (x76 (= x24 x20)) (x68 (= x38 x155)) (x91 (= x38 x154)) (x74 (= x24 x150)) (x107 (= x98 x50)) (x95 (= x98 x43)) (x135 (= x123 x128)) (x72 (= x24 x64)) (x96 (= x34 x128)) (x137 (= x155 x128)) (x104 (= x98 x33)) (x105 (= x98 x52)) (x141 (= x150 x128)) (x15 (= x123 x98)) (x144 (= x128 x52)) (x86 (= x127 x116)) (x132 (= x142 x24)) (x71 (= x127 x14)) (x23 (= x20 x128)) (x156 (= x38 x14)) (x119 (= x127 x39)) (x37 (= x88 x127)) (x57 (= x38 x20)) (x3 (= x98 x150)) (x99 (= x128 x154)) (x152 (= x77 x38)) (x17 (= x38 x33)) (x8 (= x116 x24)) (x120 (= x127 x77)) (x108 (= x12 x127)) (x73 (= x12 x24)) (x81 (= x14 x98)) (x117 (= x106 x128)) (x42 (= x106 x24)) (x118 (= x98 x106)) (x32 (= x38 x62))) (and (or (or (or (and x65 (not x65)) (or (or (and x97 (not x144)) (or (and x6 (not x124)) (and x131 (not x147)))) (and (not x105) x32))) (or (or (and (not x36) x36) (or (and x60 (not x51)) (or (or (and x61 (not x73)) (and (not x108) x68)) (and x153 (not x85))))) (or (or (and (not x146) x146) (or (or (and x17 (not x117)) (or (and (not x157) x19) (and x91 (not x42)))) (and x103 (not x118)))) (or (or (and (not x81) x47) (or (or (and x152 (not x53)) (and (not x71) x57)) (and x93 (not x121)))) (and x156 (not x156)))))) (or (or (and (not x100) x40) (or (and x125 (not x54)) (or (and x46 (not x37)) (and (not x159) x29)))) (and x48 (not x48)))) (and (or (or (or (or (or (and x81 (not x47)) (or (and x4 (not x4)) (or (or (and (not x41) x122) (and x136 (not x101))) (and (not x10) x3)))) (or (or (or (and (not x96) x104) (or (and (not x35) x133) (and (not x129) x84))) (and x126 (not x126))) (and x118 (not x103)))) (or (and x51 (not x60)) (or (or (and x15 (not x70)) (or (and (not x18) x63) (and (not x134) x79))) (and x114 (not x114))))) (or (or (or (or (and (not x143) x107) (and x158 (not x5))) (and x145 (not x2))) (and x21 (not x21))) (and (not x32) x105))) (or (or (and x30 (not x30)) (or (or (and (not x119) x66) (and x95 (not x45))) (and (not x25) x148))) (and (not x40) x100))) (and (and (or (or (or (or (or (and (not x149) x13) (or (and x139 (not x139)) (and (not x7) x8))) (and (not x107) x143)) (and x124 (not x6))) (or (or (and x73 (not x61)) (or (or (or (and x67 (not x67)) (and (not x102) x82)) (and (not x87) x89)) (and (not x79) x134))) (or (or (and (not x91) x42) (or (or (or (and (not x83) x132) (and (not x26) x26)) (and (not x99) x130)) (and (not x133) x35))) (or (or (and x41 (not x122)) (or (and (not x55) x74) (or (and x80 (not x80)) (and (not x120) x76)))) (and (not x152) x53))))) (or (or (and x45 (not x95)) (or (and (not x49) x138) (or (and (not x22) x72) (and x44 (not x44))))) (and (not x29) x159))) (or (or (or (or (and (not x158) x5) (or (or (and x86 (not x86)) (and (not x8) x7)) (and x140 (not x110)))) (and (not x131) x147)) (or (or (or (or (or (and x102 (not x82)) (and (not x109) x109)) (and x78 (not x137))) (and (not x63) x18)) (and (not x68) x108)) (or (or (or (or (and x75 (not x59)) (or (and x111 (not x111)) (and (not x132) x83))) (and (not x84) x129)) (and (not x19) x157)) (or (and x71 (not x57)) (or (or (and (not x23) x90) (or (and (not x76) x120) (and x94 (not x94)))) (and x101 (not x136))))))) (or (or (or (and (not x113) x31) (or (and (not x115) x115) (and x22 (not x72)))) (and x119 (not x66))) (and (not x46) x37)))) (or (or (or (or (or (and x70 (not x15)) (or (and (not x135) x135) (or (and x87 (not x89)) (and x137 (not x78))))) (and x85 (not x153))) (or (or (or (and x96 (not x104)) (or (and x56 (not x56)) (or (and (not x130) x99) (and (not x75) x59)))) (and x117 (not x17))) (or (or (or (and (not x141) x141) (or (and (not x90) x23) (and x55 (not x74)))) (and x10 (not x3))) (and (not x93) x121)))) (or (and (not x97) x144) (or (and x2 (not x145)) (or (or (and x110 (not x140)) (and x149 (not x13))) (and x27 (not x27)))))) (or (or (and (not x148) x25) (or (and x92 (not x92)) (or (and x49 (not x138)) (and (not x31) x113)))) (and x54 (not x125))))))))))
(assert (or (or (or (and (not (= x128 (x1 x38 (x1 x128 x38)))) (and (not (= x128 (x1 x98 (x1 x128 x98)))) (and (and (not (= x128 (x1 x127 (x1 x128 x127)))) (not (= x128 (x1 x24 (x1 x128 x24))))) (not (= x128 (x1 x128 (x1 x128 x128))))))) (or (and (and (and (not (= (x1 x128 (x1 x127 x128)) x127)) (and (not (= x127 (x1 x127 (x1 x127 x127)))) (not (= x127 (x1 x24 (x1 x127 x24)))))) (not (= (x1 x98 (x1 x127 x98)) x127))) (not (= (x1 x38 (x1 x127 x38)) x127))) (and (and (and (and (not (= x24 (x1 x127 (x1 x24 x127)))) (not (= x24 (x1 x24 (x1 x24 x24))))) (not (= x24 (x1 x128 (x1 x24 x128))))) (not (= x24 (x1 x98 (x1 x24 x98))))) (not (= x24 (x1 x38 (x1 x24 x38))))))) (and (not (= (x1 x38 (x1 x98 x38)) x98)) (and (not (= x98 (x1 x98 (x1 x98 x98)))) (and (and (not (= (x1 x127 (x1 x98 x127)) x98)) (not (= x98 (x1 x24 (x1 x98 x24))))) (not (= (x1 x128 (x1 x98 x128)) x98)))))) (and (and (and (not (= (x1 x128 (x1 x38 x128)) x38)) (and (not (= x38 (x1 x127 (x1 x38 x127)))) (not (= (x1 x24 (x1 x38 x24)) x38)))) (not (= (x1 x98 (x1 x38 x98)) x38))) (not (= (x1 x38 (x1 x38 x38)) x38)))))
(assert (let ((x16 (x1 x128 x38)) (x120 (x1 x128 x98)) (x20 (x1 x38 x98)) (x34 (x1 x24 x98)) (x83 (x1 x24 x128)) (x106 (x1 x127 x98)) (x77 (x1 x98 x24)) (x132 (x1 x127 x128)) (x150 (x1 x127 x38)) (x44 (x1 x98 x127)) (x94 (x1 x24 x38)) (x142 (x1 x128 x128)) (x26 (x1 x24 x24)) (x139 (x1 x127 x127)) (x76 (x1 x98 x98)) (x14 (x1 x98 x38)) (x111 (x1 x98 x128)) (x102 (x1 x38 x38)) (x50 (x1 x128 x127)) (x154 (x1 x127 x24)) (x43 (x1 x38 x127)) (x33 (x1 x38 x128)) (x80 (x1 x128 x24)) (x67 (x1 x38 x24)) (x69 (x1 x24 x127))) (and (and (and (not (= x14 x102)) (and (not (= x102 x16)) (and (not (= x16 x14)) (and (and (not (= x150 x14)) (and (and (and (not (= x14 x94)) (and (not (= x94 x150)) (not (= x94 x16)))) (not (= x94 x102))) (not (= x150 x16)))) (not (= x102 x150)))))) (and (and (not (= x76 x20)) (and (not (= x20 x120)) (and (and (and (not (= x106 x76)) (and (not (= x106 x120)) (and (not (= x20 x34)) (and (not (= x76 x34)) (and (not (= x34 x106)) (not (= x34 x120))))))) (not (= x106 x20))) (not (= x76 x120))))) (and (and (and (and (and (not (= x50 x44)) (and (and (and (not (= x139 x50)) (and (and (not (= x69 x44)) (and (not (= x139 x69)) (not (= x50 x69)))) (not (= x69 x43)))) (not (= x44 x139))) (not (= x43 x139)))) (not (= x43 x50))) (not (= x43 x44))) (and (and (and (and (and (not (= x154 x77)) (and (and (and (and (not (= x26 x80)) (not (= x26 x154))) (not (= x77 x26))) (not (= x26 x67))) (not (= x154 x80)))) (not (= x67 x154))) (not (= x80 x77))) (not (= x80 x67))) (not (= x67 x77)))) (and (and (and (not (= x111 x142)) (and (not (= x33 x132)) (and (not (= x111 x132)) (and (and (and (and (not (= x83 x142)) (not (= x83 x132))) (not (= x111 x83))) (not (= x83 x33))) (not (= x132 x142)))))) (not (= x33 x142))) (not (= x111 x33)))))) (and (and (and (and (not (= x33 x20)) (and (and (not (= x43 x20)) (and (not (= x43 x33)) (and (not (= x67 x102)) (and (not (= x20 x67)) (and (not (= x67 x33)) (not (= x67 x43))))))) (not (= x43 x102)))) (not (= x33 x102))) (not (= x102 x20))) (and (and (and (and (and (not (= x132 x150)) (and (not (= x132 x106)) (and (not (= x139 x150)) (and (not (= x139 x106)) (and (not (= x139 x132)) (and (and (not (= x154 x106)) (and (not (= x154 x132)) (not (= x139 x154)))) (not (= x154 x150)))))))) (not (= x150 x106))) (and (and (and (and (not (= x69 x94)) (and (not (= x34 x69)) (and (not (= x69 x83)) (and (and (not (= x26 x34)) (and (not (= x26 x83)) (not (= x26 x69)))) (not (= x26 x94)))))) (not (= x34 x83))) (not (= x94 x83))) (not (= x94 x34)))) (and (and (and (and (not (= x50 x16)) (and (and (not (= x142 x50)) (and (not (= x80 x16)) (and (and (not (= x142 x80)) (not (= x50 x80))) (not (= x120 x80))))) (not (= x120 x50)))) (not (= x142 x120))) (not (= x16 x142))) (not (= x16 x120)))) (and (not (= x76 x14)) (and (not (= x14 x111)) (and (not (= x76 x111)) (and (and (not (= x44 x76)) (and (not (= x111 x44)) (and (and (not (= x77 x76)) (and (not (= x77 x111)) (not (= x44 x77)))) (not (= x14 x77))))) (not (= x14 x44)))))))))))
(check-sat)
(exit)
